NAME 
ROWS
 N  OBJ
 L  R0      
 L  R1      
 L  R2      
 E  R3      
 E  R4      
 E  R5      
 E  R6      
 E  R7      
 E  R8      
 E  R9      
 E  R10     
 E  R11     
 E  R12     
 E  R13     
 E  R14     
 E  R15     
 E  R16     
 E  R17     
COLUMNS
    MARKER    'MARKER'                 'INTORG'
    I0(10)    OBJ       -13
    I0(10)    R0        -176
    I0(10)    R1        -65
    I0(10)    R2        -160
    I0(10)    R4        7
    I0(10)    R5        17
    I0(10)    R6        5
    I0(10)    R7        4
    I0(10)    R8        17
    I0(10)    R11       11
    I0(10)    R17       1
    I1(8)     OBJ       102
    I1(8)     R0        6
    I1(8)     R1        -125
    I1(8)     R2        -118
    I1(8)     R3        6
    I1(8)     R7        14
    I1(8)     R10       8
    I1(8)     R11       17
    I1(8)     R17       1
    I2(8)     OBJ       -191
    I2(8)     R0        188
    I2(8)     R1        18
    I2(8)     R2        9
    I2(8)     R5        15
    I2(8)     R8        19
    I2(8)     R9        15
    I2(8)     R10       8
    I2(8)     R17       1
    I3(8)     OBJ       16
    I3(8)     R0        -141
    I3(8)     R1        -28
    I3(8)     R2        99
    I3(8)     R4        8
    I3(8)     R5        9
    I3(8)     R6        7
    I3(8)     R11       12
    I3(8)     R17       1
    I4(10)    OBJ       192
    I4(10)    R0        -35
    I4(10)    R1        101
    I4(10)    R2        79
    I4(10)    R4        17
    I4(10)    R5        11
    I4(10)    R7        4
    I4(10)    R8        16
    I4(10)    R9        17
    I4(10)    R10       1
    I4(10)    R17       1
    I5(11)    OBJ       101
    I5(11)    R1        -75
    I5(11)    R2        23
    I5(11)    R3        8
    I5(11)    R4        6
    I5(11)    R5        3
    I5(11)    R7        12
    I5(11)    R8        19
    I5(11)    R9        11
    I5(11)    R10       4
    I5(11)    R11       13
    I5(11)    R17       1
    I6(7)     OBJ       -107
    I6(7)     R0        120
    I6(7)     R1        -105
    I6(7)     R2        -186
    I6(7)     R5        5
    I6(7)     R8        18
    I6(7)     R10       2
    I6(7)     R17       1
    I7(11)    OBJ       75
    I7(11)    R0        181
    I7(11)    R1        13
    I7(11)    R2        -92
    I7(11)    R3        5
    I7(11)    R4        16
    I7(11)    R7        12
    I7(11)    R8        19
    I7(11)    R9        18
    I7(11)    R10       16
    I7(11)    R11       15
    I7(11)    R17       1
    I8(13)    OBJ       -97
    I8(13)    R0        107
    I8(13)    R1        -71
    I8(13)    R2        -28
    I8(13)    R3        2
    I8(13)    R4        5
    I8(13)    R5        5
    I8(13)    R6        9
    I8(13)    R7        5
    I8(13)    R8        5
    I8(13)    R9        2
    I8(13)    R10       13
    I8(13)    R11       13
    I8(13)    R17       1
    MARKER    'MARKER'                 'INTEND'
    C9(13)    R0        7
    C9(13)    R1        -9
    C9(13)    R2        -8
    C9(13)    R3        8
    C9(13)    R4        11
    C9(13)    R5        19
    C9(13)    R6        17
    C9(13)    R7        10
    C9(13)    R8        10
    C9(13)    R9        11
    C9(13)    R10       6
    C9(13)    R11       11
    C9(13)    R13       13
    C10(13)   OBJ       4
    C10(13)   R0        9
    C10(13)   R1        4
    C10(13)   R2        6
    C10(13)   R3        4
    C10(13)   R4        12
    C10(13)   R5        17
    C10(13)   R6        1
    C10(13)   R7        3
    C10(13)   R8        18
    C10(13)   R9        17
    C10(13)   R10       17
    C10(13)   R14       10
    C10(13)   R16       19
    C11(13)   OBJ       6
    C11(13)   R0        9
    C11(13)   R1        1
    C11(13)   R2        -9
    C11(13)   R3        1
    C11(13)   R5        7
    C11(13)   R6        12
    C11(13)   R7        15
    C11(13)   R8        3
    C11(13)   R10       4
    C11(13)   R12       5
    C11(13)   R13       18
    C11(13)   R15       19
    C11(13)   R16       11
    C12(12)   OBJ       -9
    C12(12)   R0        9
    C12(12)   R1        2
    C12(12)   R2        7
    C12(12)   R3        12
    C12(12)   R5        14
    C12(12)   R8        2
    C12(12)   R9        8
    C12(12)   R10       14
    C12(12)   R11       15
    C12(12)   R12       8
    C12(12)   R15       -1
    C12(12)   R16       2
    C13(10)   OBJ       4
    C13(10)   R0        2
    C13(10)   R1        -5
    C13(10)   R2        2
    C13(10)   R6        2
    C13(10)   R7        11
    C13(10)   R8        19
    C13(10)   R10       8
    C13(10)   R12       3
    C13(10)   R14       16
    C13(10)   R15       14
    C14(9)    OBJ       4
    C14(9)    R0        -6
    C14(9)    R1        2
    C14(9)    R2        8
    C14(9)    R8        10
    C14(9)    R10       13
    C14(9)    R12       10
    C14(9)    R13       8
    C14(9)    R15       6
    C14(9)    R16       5
    C15(1)    R3        1
    C16(1)    R4        1
    C17(1)    R5        1
    C18(1)    R6        1
    C19(1)    R7        1
    C20(1)    R8        1
    C21(1)    R9        1
    C22(1)    R10       1
    C23(1)    R11       1
    C24(1)    R12       1
    C25(1)    R13       1
    C26(1)    R14       1
    C27(1)    R15       1
    C28(1)    R16       1
    C29(1)    R17       1
RHS
    RHS1      R0        5.2428571428571422e+02
    RHS1      R1        -6.2714285714285722e+01
    RHS1      R2        -146
    RHS1      R3        75
    RHS1      R4        72
    RHS1      R5        79
    RHS1      R6        71
    RHS1      R7        85
    RHS1      R8        71
    RHS1      R9        56
    RHS1      R10       99
    RHS1      R11       90
    RHS1      R12       51
    RHS1      R13       98
    RHS1      R14       54
    RHS1      R15       61
    RHS1      R16       68
    RHS1      R17       3
BOUNDS
 UP BND1      I0(10)    2
 UP BND1      I1(8)     2
 UP BND1      I2(8)     2
 UP BND1      I3(8)     2
 UP BND1      I4(10)    2
 UP BND1      I5(11)    2
 UP BND1      I6(7)     2
 UP BND1      I7(11)    2
 UP BND1      I8(13)    2
ENDATA
